c This file was generated by genrmf.
c The parameters are: a: 4 b: 8 c1: 0 c2: 100 cost: 100 demand: 1000 seed: 3141592
p max     128        496
n       1        270
n     128       -270
a       1      28          0         88         99
a       1       2          0       1600         48
a       1       5          0       1600         74
a       2      25          0         39         69
a       2       3          0       1600         14
a       2       1          0       1600         58
a       2       6          0       1600         87
a       3      29          0         55         59
a       3       4          0       1600         29
a       3       2          0       1600         57
a       3       7          0       1600          3
a       4      23          0         71         34
a       4       3          0       1600         76
a       4       8          0       1600         44
a       5      26          0         64         77
a       5       6          0       1600         99
a       5       9          0       1600         41
a       5       1          0       1600         75
a       6      22          0         25         11
a       6       7          0       1600         81
a       6       5          0       1600         95
a       6      10          0       1600         25
a       6       2          0       1600         62
a       7      31          0         94         88
a       7       8          0       1600         13
a       7       6          0       1600         40
a       7      11          0       1600         80
a       7       3          0       1600         45
a       8      32          0         54         16
a       8       7          0       1600         19
a       8      12          0       1600          7
a       8       4          0       1600         11
a       9      19          0         38         31
a       9      10          0       1600         64
a       9      13          0       1600         93
a       9       5          0       1600         74
a      10      27          0         73         66
a      10      11          0       1600         61
a      10       9          0       1600         80
a      10      14          0       1600         58
a      10       6          0       1600         72
a      11      24          0         45         86
a      11      12          0       1600         72
a      11      10          0       1600         38
a      11      15          0       1600         54
a      11       7          0       1600         14
a      12      17          0         97         83
a      12      11          0       1600         31
a      12      16          0       1600         67
a      12       8          0       1600         23
a      13      18          0         46         38
a      13      14          0       1600         56
a      13       9          0       1600         59
a      14      21          0         22          9
a      14      15          0       1600         88
a      14      13          0       1600         24
a      14      10          0       1600         49
a      15      30          0         35         20
a      15      16          0       1600         14
a      15      14          0       1600          3
a      15      11          0       1600         28
a      16      20          0         62         61
a      16      15          0       1600         72
a      16      12          0       1600         76
a      17      41          0         33         22
a      17      18          0       1600         46
a      17      21          0       1600         90
a      18      38          0         21          0
a      18      19          0       1600          4
a      18      17          0       1600         72
a      18      22          0       1600         29
a      19      42          0         17         86
a      19      20          0       1600         89
a      19      18          0       1600         39
a      19      23          0       1600         85
a      20      40          0         83         51
a      20      19          0       1600         90
a      20      24          0       1600         60
a      21      46          0          6         50
a      21      22          0       1600         38
a      21      25          0       1600         31
a      21      17          0       1600         48
a      22      33          0         38         12
a      22      23          0       1600         44
a      22      21          0       1600         36
a      22      26          0       1600         93
a      22      18          0       1600         92
a      23      43          0         15         17
a      23      24          0       1600         38
a      23      22          0       1600         26
a      23      27          0       1600         55
a      23      19          0       1600         78
a      24      44          0         37         16
a      24      23          0       1600         23
a      24      28          0       1600         65
a      24      20          0       1600         76
a      25      37          0         73         65
a      25      26          0       1600         95
a      25      29          0       1600         48
a      25      21          0       1600         95
a      26      47          0         10         61
a      26      27          0       1600         20
a      26      25          0       1600          3
a      26      30          0       1600         53
a      26      22          0       1600         41
a      27      36          0          9         39
a      27      28          0       1600         76
a      27      26          0       1600         90
a      27      31          0       1600         82
a      27      23          0       1600         64
a      28      34          0         18         95
a      28      27          0       1600         43
a      28      32          0       1600         67
a      28      24          0       1600         56
a      29      39          0         50         23
a      29      30          0       1600         31
a      29      25          0       1600         45
a      30      48          0         69         91
a      30      31          0       1600         31
a      30      29          0       1600          2
a      30      26          0       1600         29
a      31      35          0         45         84
a      31      32          0       1600         63
a      31      30          0       1600         47
a      31      27          0       1600         42
a      32      45          0          8         23
a      32      31          0       1600          4
a      32      28          0       1600         92
a      33      64          0         44         17
a      33      34          0       1600        100
a      33      37          0       1600         64
a      34      58          0         70         80
a      34      35          0       1600         82
a      34      33          0       1600          4
a      34      38          0       1600         99
a      35      57          0         53        100
a      35      36          0       1600         58
a      35      34          0       1600          7
a      35      39          0       1600         64
a      36      52          0         15         88
a      36      35          0       1600         33
a      36      40          0       1600         85
a      37      50          0         72         70
a      37      38          0       1600          3
a      37      41          0       1600         20
a      37      33          0       1600         45
a      38      56          0         80         64
a      38      39          0       1600         49
a      38      37          0       1600         43
a      38      42          0       1600         75
a      38      34          0       1600         45
a      39      61          0          0         82
a      39      40          0       1600         12
a      39      38          0       1600         89
a      39      43          0       1600         54
a      39      35          0       1600         28
a      40      59          0         43         25
a      40      39          0       1600         86
a      40      44          0       1600         11
a      40      36          0       1600         34
a      41      53          0         93         22
a      41      42          0       1600         33
a      41      45          0       1600         23
a      41      37          0       1600         64
a      42      49          0         80         82
a      42      43          0       1600         69
a      42      41          0       1600         22
a      42      46          0       1600         78
a      42      38          0       1600         65
a      43      54          0         89         38
a      43      44          0       1600         14
a      43      42          0       1600         78
a      43      47          0       1600         86
a      43      39          0       1600          6
a      44      62          0         55         10
a      44      43          0       1600         34
a      44      48          0       1600         44
a      44      40          0       1600         57
a      45      51          0         86         95
a      45      46          0       1600        100
a      45      41          0       1600         77
a      46      60          0         33         26
a      46      47          0       1600         72
a      46      45          0       1600         13
a      46      42          0       1600         23
a      47      63          0         78         58
a      47      48          0       1600         48
a      47      46          0       1600         87
a      47      43          0       1600         50
a      48      55          0         61         24
a      48      47          0       1600         90
a      48      44          0       1600         14
a      49      66          0         65         89
a      49      50          0       1600         30
a      49      53          0       1600         37
a      50      80          0         32         98
a      50      51          0       1600         52
a      50      49          0       1600          3
a      50      54          0       1600         84
a      51      74          0        100          1
a      51      52          0       1600        100
a      51      50          0       1600          7
a      51      55          0       1600         88
a      52      71          0         60         61
a      52      51          0       1600         60
a      52      56          0       1600         61
a      53      68          0         32         34
a      53      54          0       1600         77
a      53      57          0       1600         18
a      53      49          0       1600         65
a      54      76          0         56         92
a      54      55          0       1600         55
a      54      53          0       1600         40
a      54      58          0       1600         57
a      54      50          0       1600         74
a      55      72          0          4         81
a      55      56          0       1600         40
a      55      54          0       1600         90
a      55      59          0       1600         58
a      55      51          0       1600         33
a      56      73          0         19         41
a      56      55          0       1600         80
a      56      60          0       1600          9
a      56      52          0       1600         19
a      57      77          0         81          9
a      57      58          0       1600         48
a      57      61          0       1600         90
a      57      53          0       1600         34
a      58      75          0         15         46
a      58      59          0       1600         17
a      58      57          0       1600         66
a      58      62          0       1600         92
a      58      54          0       1600         10
a      59      70          0         85         72
a      59      60          0       1600         30
a      59      58          0       1600          8
a      59      63          0       1600          5
a      59      55          0       1600         77
a      60      67          0         28         31
a      60      59          0       1600          2
a      60      64          0       1600         58
a      60      56          0       1600         57
a      61      65          0         87         40
a      61      62          0       1600         33
a      61      57          0       1600         81
a      62      79          0         17         87
a      62      63          0       1600          1
a      62      61          0       1600         64
a      62      58          0       1600         59
a      63      78          0         48         70
a      63      64          0       1600         65
a      63      62          0       1600         76
a      63      59          0       1600         75
a      64      69          0         72         14
a      64      63          0       1600         69
a      64      60          0       1600         50
a      65      92          0         94         79
a      65      66          0       1600         88
a      65      69          0       1600         88
a      66      96          0         55         48
a      66      67          0       1600         56
a      66      65          0       1600         93
a      66      70          0       1600         67
a      67      91          0         34         23
a      67      68          0       1600         98
a      67      66          0       1600          8
a      67      71          0       1600         50
a      68      95          0         93         33
a      68      67          0       1600         45
a      68      72          0       1600         89
a      69      93          0          7         39
a      69      70          0       1600         73
a      69      73          0       1600         64
a      69      65          0       1600         28
a      70      84          0         46         67
a      70      71          0       1600         39
a      70      69          0       1600         77
a      70      74          0       1600         50
a      70      66          0       1600          4
a      71      89          0         79         55
a      71      72          0       1600          9
a      71      70          0       1600         15
a      71      75          0       1600         71
a      71      67          0       1600          2
a      72      87          0         65         65
a      72      71          0       1600         68
a      72      76          0       1600         80
a      72      68          0       1600         25
a      73      94          0         35         40
a      73      74          0       1600         10
a      73      77          0       1600          1
a      73      69          0       1600         69
a      74      85          0         95         16
a      74      75          0       1600         66
a      74      73          0       1600         35
a      74      78          0       1600         52
a      74      70          0       1600         37
a      75      83          0         64          0
a      75      76          0       1600         67
a      75      74          0       1600         97
a      75      79          0       1600          9
a      75      71          0       1600         44
a      76      90          0         87         79
a      76      75          0       1600         80
a      76      80          0       1600         89
a      76      72          0       1600         24
a      77      81          0         33         14
a      77      78          0       1600         43
a      77      73          0       1600         31
a      78      86          0         98         40
a      78      79          0       1600          8
a      78      77          0       1600         68
a      78      74          0       1600         45
a      79      88          0         11         35
a      79      80          0       1600         71
a      79      78          0       1600          8
a      79      75          0       1600         74
a      80      82          0         57         98
a      80      79          0       1600         49
a      80      76          0       1600          4
a      81     108          0         75         55
a      81      82          0       1600         93
a      81      85          0       1600         96
a      82      99          0         11         88
a      82      83          0       1600         91
a      82      81          0       1600         79
a      82      86          0       1600          8
a      83     112          0         24         43
a      83      84          0       1600         23
a      83      82          0       1600         73
a      83      87          0       1600         67
a      84     104          0          0         68
a      84      83          0       1600         82
a      84      88          0       1600         28
a      85     111          0         66         87
a      85      86          0       1600         35
a      85      89          0       1600         15
a      85      81          0       1600         96
a      86     109          0         52         79
a      86      87          0       1600         49
a      86      85          0       1600        100
a      86      90          0       1600         91
a      86      82          0       1600         81
a      87     102          0          0         24
a      87      88          0       1600         49
a      87      86          0       1600         34
a      87      91          0       1600         27
a      87      83          0       1600        100
a      88      97          0         83         44
a      88      87          0       1600         87
a      88      92          0       1600         44
a      88      84          0       1600         66
a      89     101          0         52         24
a      89      90          0       1600         53
a      89      93          0       1600         68
a      89      85          0       1600         78
a      90      98          0         48         46
a      90      91          0       1600          9
a      90      89          0       1600         97
a      90      94          0       1600         54
a      90      86          0       1600         18
a      91     106          0          2         66
a      91      92          0       1600         71
a      91      90          0       1600         93
a      91      95          0       1600         85
a      91      87          0       1600         19
a      92     100          0         61         69
a      92      91          0       1600         20
a      92      96          0       1600         55
a      92      88          0       1600         60
a      93     105          0         17         33
a      93      94          0       1600         46
a      93      89          0       1600         76
a      94     103          0         39         75
a      94      95          0       1600        100
a      94      93          0       1600         74
a      94      90          0       1600         68
a      95     110          0         66         81
a      95      96          0       1600         29
a      95      94          0       1600         10
a      95      91          0       1600         14
a      96     107          0         79         40
a      96      95          0       1600         37
a      96      92          0       1600         90
a      97     126          0         82         60
a      97      98          0       1600         46
a      97     101          0       1600         34
a      98     127          0         98         91
a      98      99          0       1600         19
a      98      97          0       1600         14
a      98     102          0       1600         20
a      99     124          0         74         59
a      99     100          0       1600          5
a      99      98          0       1600         68
a      99     103          0       1600         57
a     100     119          0         12         69
a     100      99          0       1600         40
a     100     104          0       1600         91
a     101     113          0         46         13
a     101     102          0       1600         30
a     101     105          0       1600         82
a     101      97          0       1600         15
a     102     117          0         52         64
a     102     103          0       1600         46
a     102     101          0       1600         62
a     102     106          0       1600         31
a     102      98          0       1600         83
a     103     115          0          8         17
a     103     104          0       1600         80
a     103     102          0       1600         79
a     103     107          0       1600         92
a     103      99          0       1600         92
a     104     118          0         61         11
a     104     103          0       1600         17
a     104     108          0       1600         45
a     104     100          0       1600         73
a     105     128          0         47         31
a     105     106          0       1600         17
a     105     109          0       1600         55
a     105     101          0       1600          8
a     106     116          0         89         66
a     106     107          0       1600         69
a     106     105          0       1600         34
a     106     110          0       1600         91
a     106     102          0       1600         84
a     107     120          0         33         31
a     107     108          0       1600         97
a     107     106          0       1600         61
a     107     111          0       1600         42
a     107     103          0       1600         59
a     108     121          0         94        100
a     108     107          0       1600          5
a     108     112          0       1600         94
a     108     104          0       1600         66
a     109     125          0         17         20
a     109     110          0       1600         41
a     109     105          0       1600         43
a     110     122          0         93         37
a     110     111          0       1600         55
a     110     109          0       1600         11
a     110     106          0       1600         80
a     111     123          0          1         29
a     111     112          0       1600         75
a     111     110          0       1600          5
a     111     107          0       1600         87
a     112     114          0         48         52
a     112     111          0       1600         42
a     112     108          0       1600          3
a     113     114          0       1600         30
a     113     117          0       1600         69
a     114     115          0       1600         22
a     114     113          0       1600         90
a     114     118          0       1600         88
a     115     116          0       1600         20
a     115     114          0       1600         69
a     115     119          0       1600         97
a     116     115          0       1600          8
a     116     120          0       1600         31
a     117     118          0       1600         54
a     117     121          0       1600         28
a     117     113          0       1600         62
a     118     119          0       1600          2
a     118     117          0       1600         54
a     118     122          0       1600         77
a     118     114          0       1600         40
a     119     120          0       1600         15
a     119     118          0       1600         65
a     119     123          0       1600         27
a     119     115          0       1600         39
a     120     119          0       1600         71
a     120     124          0       1600         57
a     120     116          0       1600          7
a     121     122          0       1600         77
a     121     125          0       1600         90
a     121     117          0       1600         39
a     122     123          0       1600        100
a     122     121          0       1600         62
a     122     126          0       1600         57
a     122     118          0       1600         92
a     123     124          0       1600        100
a     123     122          0       1600         86
a     123     127          0       1600         42
a     123     119          0       1600         37
a     124     123          0       1600         25
a     124     128          0       1600         72
a     124     120          0       1600         35
a     125     126          0       1600         54
a     125     121          0       1600          5
a     126     127          0       1600         30
a     126     125          0       1600         17
a     126     122          0       1600         54
a     127     128          0       1600         11
a     127     126          0       1600          6
a     127     123          0       1600         30
a     128     127          0       1600         41
a     128     124          0       1600         40
